qbf_easy_train/easy_1681_SAT.qdimacs
p cnf 31 82
a 20 5 23 0
e 1 2 3 4 6 7 8 9 10 11 12 13 14 15 16 17 18 19 21 22 24 25 26 27 28 29 30 31 0
-4 2 0
-4 3 0
-2 -3 4 0
-1 4 -5 0
1 -4 -5 0
-1 -4 5 0
1 4 5 0
-8 6 0
-8 7 0
-6 -7 8 0
-9 -8 0
-9 1 0
8 -1 9 0
-10 9 0
-10 -9 0
-5 10 -11 0
5 -10 -11 0
-5 -10 11 0
5 10 11 0
13 6 0
13 12 0
-6 -12 -13 0
-14 2 0
-14 13 0
-2 -13 14 0
-15 11 0
-15 14 0
-11 -14 15 0
18 -8 0
18 3 0
8 -3 -18 0
-17 -18 -19 0
17 18 -19 0
-17 18 19 0
17 -18 19 0
-16 19 -20 0
16 -19 -20 0
-16 -19 20 0
16 19 20 0
19 -3 -21 0
-19 3 -21 0
19 3 21 0
-19 -3 21 0
22 -20 0
22 -21 0
20 21 -22 0
23 -12 0
23 7 0
12 -7 -23 0
23 -12 -24 0
-23 12 -24 0
23 12 24 0
-23 -12 24 0
-25 6 0
-25 -24 0
-6 24 25 0
26 7 0
26 25 0
-7 -25 -26 0
27 -9 0
27 -26 0
9 26 -27 0
-28 12 0
-28 -26 0
-12 26 28 0
-29 -27 0
-29 28 0
27 -28 29 0
-30 -22 0
-30 -29 0
22 29 30 0
31 15 0
31 30 0
-15 -30 -31 0
-11 -5 25 18 -7 0
30 -15 -18 31 -9 0
-16 19 -26 -5 -29 28 0
21 24 -14 7 2 29 0
-15 -14 4 1 29 -3 0
-1 -19 -15 -21 -11 -30 -18 0
16 5 1 -17 0
31 0
