sat_easy_train/easy_1681_SAT.dimacs
p cnf 126 424
-3 1 0
-3 -2 0
-1 2 3 0
-5 -3 0
-5 -4 0
3 4 5 0
-6 2 -7 0
6 -2 -7 0
-6 -2 7 0
6 2 7 0
-9 -2 0
-9 -8 0
2 8 9 0
-7 9 -10 0
7 -9 -10 0
-7 -9 10 0
7 9 10 0
-12 -4 0
-12 -11 0
4 11 12 0
2 12 -13 0
-2 -12 -13 0
2 -12 13 0
-2 12 13 0
-15 13 0
-15 14 0
-13 -14 15 0
16 -10 0
16 -15 0
10 15 -16 0
5 16 -17 0
-5 -16 -17 0
5 -16 17 0
-5 16 17 0
19 1 0
19 -18 0
-1 18 -19 0
-22 -20 0
-22 21 0
20 -21 22 0
-23 -12 0
-23 -22 0
12 22 23 0
-23 18 -24 0
23 -18 -24 0
-23 -18 24 0
23 18 24 0
25 19 0
25 -24 0
-19 24 -25 0
-26 25 0
-26 20 0
-25 -20 26 0
-27 17 0
-27 -26 0
-17 26 27 0
-9 28 -29 0
9 -28 -29 0
-9 -28 29 0
9 28 29 0
30 -8 0
30 -29 0
8 29 -30 0
-30 -28 -31 0
30 28 -31 0
-30 28 31 0
30 -28 31 0
32 -27 0
32 31 0
27 -31 -32 0
34 -20 0
34 -33 0
20 33 -34 0
18 34 -35 0
-18 -34 -35 0
18 -34 35 0
-18 34 35 0
36 -34 0
36 -35 0
34 35 -36 0
-6 -36 -37 0
6 36 -37 0
-6 36 37 0
6 -36 37 0
12 -34 -38 0
-12 34 -38 0
12 34 38 0
-12 -34 38 0
25 29 -39 0
-25 -29 -39 0
25 -29 39 0
-25 29 39 0
-40 -38 0
-40 39 0
38 -39 40 0
-40 41 -42 0
40 -41 -42 0
-40 -41 42 0
40 41 42 0
44 28 0
44 6 0
-28 -6 -44 0
-45 -44 0
-45 -7 0
44 7 45 0
43 -45 -46 0
-43 45 -46 0
43 45 46 0
-43 -45 46 0
-42 -46 -47 0
42 46 -47 0
-42 46 47 0
42 -46 47 0
-35 -8 -48 0
35 8 -48 0
-35 8 48 0
35 -8 48 0
50 -44 0
50 4 0
44 -4 -50 0
-51 -50 0
-51 14 0
50 -14 51 0
-52 49 0
-52 -51 0
-49 51 52 0
-52 -35 -53 0
52 35 -53 0
-52 35 53 0
52 -35 53 0
-50 -35 -54 0
50 35 -54 0
-50 35 54 0
50 -35 54 0
53 -54 -55 0
-53 54 -55 0
53 54 55 0
-53 -54 55 0
-48 -55 -56 0
48 55 -56 0
-48 55 56 0
48 -55 56 0
57 47 0
57 -56 0
-47 56 -57 0
-37 -57 -58 0
37 57 -58 0
-37 57 58 0
37 -57 58 0
59 32 0
59 -58 0
-32 58 -59 0
-60 -19 0
-60 -30 0
19 30 60 0
-61 -13 0
-61 -60 0
13 60 61 0
-62 44 0
-62 -30 0
-44 30 62 0
-63 62 0
-63 20 0
-62 -20 63 0
-61 -63 -64 0
61 63 -64 0
-61 63 64 0
61 -63 64 0
12 -28 -65 0
-12 28 -65 0
12 28 65 0
-12 -28 65 0
-66 -64 0
-66 -65 0
64 65 66 0
67 -10 0
67 38 0
10 -38 -67 0
68 67 0
68 -1 0
-67 1 -68 0
69 28 0
69 -68 0
-28 68 -69 0
-66 69 -70 0
66 -69 -70 0
-66 -69 70 0
66 69 70 0
71 59 0
71 -70 0
-59 70 -71 0
-72 -50 0
-72 -36 0
50 36 72 0
73 -72 0
73 24 0
72 -24 -73 0
74 -23 0
74 -28 0
23 28 -74 0
18 -52 -75 0
-18 52 -75 0
18 52 75 0
-18 -52 75 0
-76 -18 0
-76 -45 0
18 45 76 0
-75 -76 -77 0
75 76 -77 0
-75 76 77 0
75 -76 77 0
-78 74 0
-78 -77 0
-74 77 78 0
-79 -33 0
-79 23 0
33 -23 79 0
-79 -9 -80 0
79 9 -80 0
-79 9 80 0
79 -9 80 0
81 78 0
81 80 0
-78 -80 -81 0
82 22 0
82 21 0
-22 -21 -82 0
-82 29 -83 0
82 -29 -83 0
-82 -29 83 0
82 29 83 0
84 -19 0
84 23 0
19 -23 -84 0
85 34 0
85 84 0
-34 -84 -85 0
-86 -83 0
-86 85 0
83 -85 86 0
10 -14 -87 0
-10 14 -87 0
10 14 87 0
-10 -14 87 0
67 -79 -88 0
-67 79 -88 0
67 79 88 0
-67 -79 88 0
-40 88 -89 0
40 -88 -89 0
-40 -88 89 0
40 88 89 0
90 87 0
90 -89 0
-87 89 -90 0
-91 86 0
-91 -90 0
-86 90 91 0
-81 -91 -92 0
81 91 -92 0
-81 91 92 0
81 -91 92 0
-60 23 -93 0
60 -23 -93 0
-60 -23 93 0
60 23 93 0
94 93 0
94 67 0
-93 -67 -94 0
-95 -60 0
-95 -41 0
60 41 95 0
-96 4 0
-96 95 0
-4 -95 96 0
97 -7 0
97 96 0
7 -96 -97 0
98 -94 0
98 97 0
94 -97 -98 0
99 95 0
99 -20 0
-95 20 -99 0
98 99 -100 0
-98 -99 -100 0
98 -99 100 0
-98 99 100 0
-101 -92 0
-101 -100 0
92 100 101 0
102 73 0
102 -101 0
-73 101 -102 0
-103 -84 0
-103 -62 0
84 62 103 0
-104 84 0
-104 67 0
-84 -67 104 0
-105 -13 0
-105 93 0
13 -93 105 0
-104 105 -106 0
104 -105 -106 0
-104 -105 106 0
104 105 106 0
-107 -21 0
-107 21 0
-106 107 -108 0
106 -107 -108 0
-106 -107 108 0
106 107 108 0
-103 -108 -109 0
103 108 -109 0
-103 108 109 0
103 -108 109 0
-1 35 -110 0
1 -35 -110 0
-1 -35 110 0
1 35 110 0
111 109 0
111 -110 0
-109 110 -111 0
-112 -102 0
-112 111 0
102 -111 112 0
-113 -21 0
-113 -41 0
21 41 113 0
-114 36 0
-114 -7 0
-36 7 114 0
-115 6 0
-115 -10 0
-6 10 115 0
116 114 0
116 -115 0
-114 115 -116 0
11 -10 -117 0
-11 10 -117 0
11 10 117 0
-11 -10 117 0
118 -38 0
118 28 0
38 -28 -118 0
119 -117 0
119 -118 0
117 118 -119 0
120 116 0
120 119 0
-116 -119 -120 0
121 -113 0
121 -120 0
113 120 -121 0
-122 112 0
-122 121 0
-112 -121 122 0
-123 45 -124 0
123 -45 -124 0
-123 -45 124 0
123 45 124 0
-125 -122 0
-125 -124 0
122 124 125 0
-126 71 0
-126 125 0
-71 -125 126 0
-66 -9 0
89 38 0
-107 -12 -111 54 0
-16 -74 -62 0
-100 -44 41 32 0
-40 -26 13 -114 0
-123 108 13 -91 0
84 -65 -11 26 64 0
106 56 50 -66 28 0
93 -64 69 36 -17 0
-90 -9 20 -46 0
82 10 93 50 0
-117 70 38 32 60 0
-119 -17 0
-24 62 -65 0
113 19 8 70 0
103 10 -24 106 0
-51 -63 106 -25 33 -70 0
34 -80 70 -98 -79 87 0
-21 87 -126 0
-31 -115 0
-61 102 83 -46 0
92 -22 0
75 78 -1 -85 -90 0
83 55 -44 -101 0
27 32 -102 0
22 25 67 -59 0
-60 123 63 0
4 29 74 10 45 -14 0
87 -46 -56 0
-114 118 -87 -13 0
-91 -49 -14 0
101 111 -21 117 60 57 0
-106 99 89 -2 34 0
-71 -3 -84 -5 0
-2 45 -105 -42 -109 0
-44 82 30 -123 0
-124 -47 -101 125 13 9 0
84 -33 94 0
-103 121 27 0
79 -104 4 -23 -6 0
20 71 -17 -63 0
8 62 65 88 84 -25 0
83 -109 0
-97 -31 -16 0
112 -52 97 -30 3 0
109 56 -33 94 -88 126 0
39 -97 -19 -45 0
-99 -9 0
41 63 -11 -57 0
-94 -2 -74 0
-17 117 58 0
-52 12 26 0
-33 -17 0
43 1 53 -13 -51 0
126 0
